(set-info :smt-lib-version 2.6)
(set-logic UFNIA)
(set-info :source |
Generated by: Geoff Sutcliffe
Generated on: 2026-03-11
Generator: TPTPWorld
Application: Benchmarking automated theorem provers
Time limit: 120.0

These benchmarks are translations from the TPTP Library (Thousands of
Problems for Theorem Provers), see http://www.cs.miami.edu/~tptp/

The TPTP is maintained by Geoff Sutcliffe, and he contributed this
selection of benchmarks to SMT-LIB.  They were exported from the
v9.2.1 realease of TPTP.
|)
(set-info :category "industrial")
(set-info :status unknown)
; SZS status Success
(declare-sort $$unsorted 0)
(declare-sort tptp.uni 0)
(declare-sort tptp.ty 0)
(declare-fun tptp.sort1 (tptp.ty tptp.uni) Bool)
(declare-fun tptp.witness1 (tptp.ty) tptp.uni)
(assert (forall ((A tptp.ty)) (tptp.sort1 A (tptp.witness1 A))))
(declare-fun tptp.int () tptp.ty)
(declare-fun tptp.real () tptp.ty)
(declare-sort tptp.bool1 0)
(declare-fun tptp.bool () tptp.ty)
(declare-fun tptp.true1 () tptp.bool1)
(declare-fun tptp.false1 () tptp.bool1)
(declare-fun tptp.match_bool1 (tptp.ty tptp.bool1 tptp.uni tptp.uni) tptp.uni)
(assert (forall ((A tptp.ty) (X tptp.bool1) (X1 tptp.uni) (X2 tptp.uni)) (tptp.sort1 A (tptp.match_bool1 A X X1 X2))))
(assert (forall ((A tptp.ty) (Z tptp.uni) (Z1 tptp.uni)) (=> (tptp.sort1 A Z) (= (tptp.match_bool1 A tptp.true1 Z Z1) Z))))
(assert (forall ((A tptp.ty) (Z tptp.uni) (Z1 tptp.uni)) (=> (tptp.sort1 A Z1) (= (tptp.match_bool1 A tptp.false1 Z Z1) Z1))))
(assert (not (= tptp.true1 tptp.false1)))
(assert (forall ((U tptp.bool1)) (or (= U tptp.true1) (= U tptp.false1))))
(declare-sort tptp.tuple02 0)
(declare-fun tptp.tuple0 () tptp.ty)
(declare-fun tptp.tuple03 () tptp.tuple02)
(assert (forall ((U tptp.tuple02)) (= U tptp.tuple03)))
(declare-fun tptp.qtmark () tptp.ty)
(assert (forall ((X Int) (Y Int) (Z Int)) (=> (<= X Y) (=> (<= 0 Z) (<= (* X Z) (* Y Z))))))
(declare-fun tptp.map (tptp.ty tptp.ty) tptp.ty)
(declare-fun tptp.get (tptp.ty tptp.ty tptp.uni tptp.uni) tptp.uni)
(assert (forall ((A tptp.ty) (B tptp.ty) (X tptp.uni) (X1 tptp.uni)) (tptp.sort1 B (tptp.get B A X X1))))
(declare-fun tptp.set (tptp.ty tptp.ty tptp.uni tptp.uni tptp.uni) tptp.uni)
(assert (forall ((A tptp.ty) (B tptp.ty) (X tptp.uni) (X1 tptp.uni) (X2 tptp.uni)) (tptp.sort1 (tptp.map A B) (tptp.set B A X X1 X2))))
(assert (forall ((A tptp.ty) (B tptp.ty) (M tptp.uni) (A1 tptp.uni) (A2 tptp.uni) (B1 tptp.uni)) (=> (tptp.sort1 B B1) (=> (= A1 A2) (= (tptp.get B A (tptp.set B A M A1 B1) A2) B1)))))
(assert (forall ((A tptp.ty) (B tptp.ty) (M tptp.uni) (A1 tptp.uni) (A2 tptp.uni)) (=> (tptp.sort1 A A1) (=> (tptp.sort1 A A2) (forall ((B1 tptp.uni)) (=> (not (= A1 A2)) (= (tptp.get B A (tptp.set B A M A1 B1) A2) (tptp.get B A M A2))))))))
(declare-fun tptp.const (tptp.ty tptp.ty tptp.uni) tptp.uni)
(assert (forall ((A tptp.ty) (B tptp.ty) (X tptp.uni)) (tptp.sort1 (tptp.map A B) (tptp.const B A X))))
(assert (forall ((A tptp.ty) (B tptp.ty) (B1 tptp.uni) (A1 tptp.uni)) (=> (tptp.sort1 B B1) (= (tptp.get B A (tptp.const B A B1) A1) B1))))
(declare-fun tptp.array (tptp.ty) tptp.ty)
(declare-fun tptp.mk_array1 (tptp.ty Int tptp.uni) tptp.uni)
(assert (forall ((A tptp.ty) (X Int) (X1 tptp.uni)) (tptp.sort1 (tptp.array A) (tptp.mk_array1 A X X1))))
(declare-fun tptp.length1 (tptp.ty tptp.uni) Int)
(assert (forall ((A tptp.ty) (U Int) (U1 tptp.uni)) (= (tptp.length1 A (tptp.mk_array1 A U U1)) U)))
(declare-fun tptp.elts (tptp.ty tptp.uni) tptp.uni)
(assert (forall ((A tptp.ty) (X tptp.uni)) (tptp.sort1 (tptp.map tptp.int A) (tptp.elts A X))))
(assert (forall ((A tptp.ty) (U Int) (U1 tptp.uni)) (=> (tptp.sort1 (tptp.map tptp.int A) U1) (= (tptp.elts A (tptp.mk_array1 A U U1)) U1))))
(assert (forall ((A tptp.ty) (U tptp.uni)) (= U (tptp.mk_array1 A (tptp.length1 A U) (tptp.elts A U)))))
(declare-fun tptp.get2 (tptp.ty tptp.uni Int) tptp.uni)
(assert (forall ((A tptp.ty) (X tptp.uni) (X1 Int)) (tptp.sort1 A (tptp.get2 A X X1))))
(declare-fun tptp.t2tb (Int) tptp.uni)
(assert (forall ((X Int)) (tptp.sort1 tptp.int (tptp.t2tb X))))
(declare-fun tptp.tb2t (tptp.uni) Int)
(assert (forall ((I Int)) (= (tptp.tb2t (tptp.t2tb I)) I)))
(assert (forall ((J tptp.uni)) (= (tptp.t2tb (tptp.tb2t J)) J)))
(assert (forall ((A tptp.ty) (A1 tptp.uni) (I Int)) (= (tptp.get2 A A1 I) (tptp.get A tptp.int (tptp.elts A A1) (tptp.t2tb I)))))
(declare-fun tptp.set2 (tptp.ty tptp.uni Int tptp.uni) tptp.uni)
(assert (forall ((A tptp.ty) (X tptp.uni) (X1 Int) (X2 tptp.uni)) (tptp.sort1 (tptp.array A) (tptp.set2 A X X1 X2))))
(assert (forall ((A tptp.ty) (A1 tptp.uni) (I Int) (V tptp.uni)) (= (tptp.set2 A A1 I V) (tptp.mk_array1 A (tptp.length1 A A1) (tptp.set A tptp.int (tptp.elts A A1) (tptp.t2tb I) V)))))
(declare-fun tptp.make1 (tptp.ty Int tptp.uni) tptp.uni)
(assert (forall ((A tptp.ty) (X Int) (X1 tptp.uni)) (tptp.sort1 (tptp.array A) (tptp.make1 A X X1))))
(assert (forall ((A tptp.ty) (N Int) (V tptp.uni)) (= (tptp.make1 A N V) (tptp.mk_array1 A N (tptp.const A tptp.int V)))))
(declare-sort tptp.elt4 0)
(declare-fun tptp.elt5 () tptp.ty)
(declare-fun tptp.le3 (tptp.elt4 tptp.elt4) Bool)
(assert (forall ((X tptp.elt4)) (tptp.le3 X X)))
(assert (forall ((X tptp.elt4) (Y tptp.elt4) (Z tptp.elt4)) (=> (tptp.le3 X Y) (=> (tptp.le3 Y Z) (tptp.le3 X Z)))))
(assert (forall ((X tptp.elt4) (Y tptp.elt4)) (or (tptp.le3 X Y) (tptp.le3 Y X))))
(declare-sort tptp.array_elt2 0)
(declare-fun tptp.sorted_sub3 (tptp.array_elt2 Int Int) Bool)
(declare-fun tptp.t2tb7 (tptp.elt4) tptp.uni)
(assert (forall ((X tptp.elt4)) (tptp.sort1 tptp.elt5 (tptp.t2tb7 X))))
(declare-fun tptp.tb2t7 (tptp.uni) tptp.elt4)
(assert (forall ((I tptp.elt4)) (= (tptp.tb2t7 (tptp.t2tb7 I)) I)))
(assert (forall ((J tptp.uni)) (=> (tptp.sort1 tptp.elt5 J) (= (tptp.t2tb7 (tptp.tb2t7 J)) J))))
(declare-fun tptp.t2tb8 (tptp.array_elt2) tptp.uni)
(assert (forall ((X tptp.array_elt2)) (tptp.sort1 (tptp.array tptp.elt5) (tptp.t2tb8 X))))
(declare-fun tptp.tb2t8 (tptp.uni) tptp.array_elt2)
(assert (forall ((I tptp.array_elt2)) (= (tptp.tb2t8 (tptp.t2tb8 I)) I)))
(assert (forall ((J tptp.uni)) (= (tptp.t2tb8 (tptp.tb2t8 J)) J)))
(assert (forall ((A tptp.array_elt2) (L Int) (U Int)) (= (tptp.sorted_sub3 A L U) (forall ((I1 Int) (I2 Int)) (let ((_let_1 (tptp.t2tb8 A))) (=> (and (<= L I1) (<= I1 I2) (< I2 U)) (tptp.le3 (tptp.tb2t7 (tptp.get2 tptp.elt5 _let_1 I1)) (tptp.tb2t7 (tptp.get2 tptp.elt5 _let_1 I2)))))))))
(declare-fun tptp.sorted3 (tptp.array_elt2) Bool)
(assert (forall ((A tptp.array_elt2)) (= (tptp.sorted3 A) (forall ((I1 Int) (I2 Int)) (let ((_let_1 (tptp.t2tb8 A))) (=> (and (<= 0 I1) (<= I1 I2) (< I2 (tptp.length1 tptp.elt5 _let_1))) (tptp.le3 (tptp.tb2t7 (tptp.get2 tptp.elt5 _let_1 I1)) (tptp.tb2t7 (tptp.get2 tptp.elt5 _let_1 I2)))))))))
(declare-fun tptp.ref (tptp.ty) tptp.ty)
(declare-fun tptp.mk_ref (tptp.ty tptp.uni) tptp.uni)
(assert (forall ((A tptp.ty) (X tptp.uni)) (tptp.sort1 (tptp.ref A) (tptp.mk_ref A X))))
(declare-fun tptp.contents (tptp.ty tptp.uni) tptp.uni)
(assert (forall ((A tptp.ty) (X tptp.uni)) (tptp.sort1 A (tptp.contents A X))))
(assert (forall ((A tptp.ty) (U tptp.uni)) (=> (tptp.sort1 A U) (= (tptp.contents A (tptp.mk_ref A U)) U))))
(assert (forall ((A tptp.ty) (U tptp.uni)) (=> (tptp.sort1 (tptp.ref A) U) (= U (tptp.mk_ref A (tptp.contents A U))))))
(declare-fun tptp.occ1 (tptp.ty tptp.uni tptp.uni Int Int) Int)
(assert (forall ((A tptp.ty) (V tptp.uni) (M tptp.uni) (L Int) (U Int)) (=> (<= U L) (= (tptp.occ1 A V M L U) 0))))
(assert (forall ((A tptp.ty) (V tptp.uni) (M tptp.uni) (L Int) (U Int)) (let ((_let_1 (- U 1))) (=> (tptp.sort1 A V) (=> (< L U) (=> (not (= (tptp.get A tptp.int M (tptp.t2tb _let_1)) V)) (= (tptp.occ1 A V M L U) (tptp.occ1 A V M L _let_1))))))))
(assert (forall ((A tptp.ty) (V tptp.uni) (M tptp.uni) (L Int) (U Int)) (let ((_let_1 (- U 1))) (=> (< L U) (=> (= (tptp.get A tptp.int M (tptp.t2tb _let_1)) V) (= (tptp.occ1 A V M L U) (+ 1 (tptp.occ1 A V M L _let_1))))))))
(assert (forall ((A tptp.ty) (V tptp.uni) (M tptp.uni) (L Int) (U Int)) (let ((_let_1 (tptp.occ1 A V M L U))) (=> (<= L U) (and (<= 0 _let_1) (<= _let_1 (- U L)))))))
(assert (forall ((A tptp.ty) (V tptp.uni) (M tptp.uni) (L Int) (Mid Int) (U Int)) (=> (and (<= L Mid) (<= Mid U)) (= (tptp.occ1 A V M L U) (+ (tptp.occ1 A V M L Mid) (tptp.occ1 A V M Mid U))))))
(assert (forall ((A tptp.ty) (V tptp.uni) (M tptp.uni) (L Int) (U Int)) (=> (tptp.sort1 A V) (=> (forall ((I Int)) (=> (and (<= L I) (< I U)) (not (= (tptp.get A tptp.int M (tptp.t2tb I)) V)))) (= (tptp.occ1 A V M L U) 0)))))
(assert (forall ((A tptp.ty) (V tptp.uni) (M tptp.uni) (L Int) (U Int)) (=> (tptp.sort1 A V) (=> (< 0 (tptp.occ1 A V M L U)) (exists ((I Int)) (and (<= L I) (< I U) (= (tptp.get A tptp.int M (tptp.t2tb I)) V)))))))
(assert (forall ((A tptp.ty) (M tptp.uni) (L Int) (U Int) (I Int)) (=> (and (<= L I) (< I U)) (< 0 (tptp.occ1 A (tptp.get A tptp.int M (tptp.t2tb I)) M L U)))))
(assert (forall ((A tptp.ty) (V tptp.uni) (M1 tptp.uni) (M2 tptp.uni) (L Int) (U Int)) (=> (forall ((I Int)) (let ((_let_1 (tptp.t2tb I))) (=> (and (<= L I) (< I U)) (= (tptp.get A tptp.int M1 _let_1) (tptp.get A tptp.int M2 _let_1))))) (= (tptp.occ1 A V M1 L U) (tptp.occ1 A V M2 L U)))))
(declare-fun tptp.permut2 (tptp.ty tptp.uni tptp.uni Int Int) Bool)
(assert (forall ((A tptp.ty) (M1 tptp.uni) (M2 tptp.uni) (L Int) (U Int)) (let ((_let_1 (tptp.permut2 A M1 M2 L U))) (and (=> _let_1 (forall ((V tptp.uni)) (= (tptp.occ1 A V M1 L U) (tptp.occ1 A V M2 L U)))) (=> (forall ((V tptp.uni)) (=> (tptp.sort1 A V) (= (tptp.occ1 A V M1 L U) (tptp.occ1 A V M2 L U)))) _let_1)))))
(assert (forall ((A tptp.ty) (A1 tptp.uni) (A2 tptp.uni) (A3 tptp.uni) (L Int) (U Int)) (=> (tptp.permut2 A A1 A2 L U) (=> (tptp.permut2 A A2 A3 L U) (tptp.permut2 A A1 A3 L U)))))
(assert (forall ((A tptp.ty) (A1 tptp.uni) (A2 tptp.uni) (L Int) (U Int) (I Int)) (=> (tptp.permut2 A A1 A2 L U) (=> (and (<= L I) (< I U)) (exists ((J Int)) (and (<= L J) (< J U) (= (tptp.get A tptp.int A1 (tptp.t2tb J)) (tptp.get A tptp.int A2 (tptp.t2tb I)))))))))
(declare-fun tptp.map_eq_sub1 (tptp.ty tptp.uni tptp.uni Int Int) Bool)
(assert (forall ((A tptp.ty) (A1 tptp.uni) (A2 tptp.uni) (L Int) (U Int)) (= (tptp.map_eq_sub1 A A1 A2 L U) (forall ((I Int)) (let ((_let_1 (tptp.t2tb I))) (=> (and (<= L I) (< I U)) (= (tptp.get A tptp.int A1 _let_1) (tptp.get A tptp.int A2 _let_1))))))))
(declare-fun tptp.array_eq_sub1 (tptp.ty tptp.uni tptp.uni Int Int) Bool)
(assert (forall ((A tptp.ty) (A1 tptp.uni) (A2 tptp.uni) (L Int) (U Int)) (let ((_let_1 (tptp.length1 A A1))) (= (tptp.array_eq_sub1 A A1 A2 L U) (and (= _let_1 (tptp.length1 A A2)) (<= 0 L) (<= L _let_1) (<= 0 U) (<= U _let_1) (tptp.map_eq_sub1 A (tptp.elts A A1) (tptp.elts A A2) L U))))))
(declare-fun tptp.array_eq (tptp.ty tptp.uni tptp.uni) Bool)
(assert (forall ((A tptp.ty) (A1 tptp.uni) (A2 tptp.uni)) (let ((_let_1 (tptp.length1 A A1))) (= (tptp.array_eq A A1 A2) (and (= _let_1 (tptp.length1 A A2)) (tptp.map_eq_sub1 A (tptp.elts A A1) (tptp.elts A A2) 0 _let_1))))))
(declare-fun tptp.exchange2 (tptp.ty tptp.uni tptp.uni Int Int Int Int) Bool)
(assert (forall ((A tptp.ty) (A1 tptp.uni) (A2 tptp.uni) (L Int) (U Int) (I Int) (J Int)) (let ((_let_1 (tptp.t2tb I))) (let ((_let_2 (tptp.t2tb J))) (= (tptp.exchange2 A A1 A2 L U I J) (and (<= L I) (< I U) (<= L J) (< J U) (= (tptp.get A tptp.int A1 _let_1) (tptp.get A tptp.int A2 _let_2)) (= (tptp.get A tptp.int A1 _let_2) (tptp.get A tptp.int A2 _let_1)) (forall ((K Int)) (let ((_let_1 (tptp.t2tb K))) (=> (and (<= L K) (< K U)) (=> (not (= K I)) (=> (not (= K J)) (= (tptp.get A tptp.int A1 _let_1) (tptp.get A tptp.int A2 _let_1)))))))))))))
(assert (forall ((A tptp.ty) (A1 tptp.uni) (L Int) (U Int) (I Int) (J Int)) (let ((_let_1 (tptp.t2tb I))) (let ((_let_2 (tptp.t2tb J))) (=> (and (<= L I) (< I U)) (=> (and (<= L J) (< J U)) (tptp.exchange2 A A1 (tptp.set A tptp.int (tptp.set A tptp.int A1 _let_1 (tptp.get A tptp.int A1 _let_2)) _let_2 (tptp.get A tptp.int A1 _let_1)) L U I J)))))))
(declare-fun tptp.exchange3 (tptp.ty tptp.uni tptp.uni Int Int) Bool)
(assert (forall ((A tptp.ty) (A1 tptp.uni) (A2 tptp.uni) (I Int) (J Int)) (let ((_let_1 (tptp.length1 A A1))) (= (tptp.exchange3 A A1 A2 I J) (and (= _let_1 (tptp.length1 A A2)) (tptp.exchange2 A (tptp.elts A A1) (tptp.elts A A2) 0 _let_1 I J))))))
(declare-fun tptp.permut3 (tptp.ty tptp.uni tptp.uni Int Int) Bool)
(assert (forall ((A tptp.ty) (A1 tptp.uni) (A2 tptp.uni) (L Int) (U Int)) (let ((_let_1 (tptp.length1 A A1))) (= (tptp.permut3 A A1 A2 L U) (and (= _let_1 (tptp.length1 A A2)) (<= 0 L) (<= L _let_1) (<= 0 U) (<= U _let_1) (tptp.permut2 A (tptp.elts A A1) (tptp.elts A A2) L U))))))
(declare-fun tptp.permut_sub1 (tptp.ty tptp.uni tptp.uni Int Int) Bool)
(assert (forall ((A tptp.ty) (A1 tptp.uni) (A2 tptp.uni) (L Int) (U Int)) (let ((_let_1 (tptp.elts A A2))) (let ((_let_2 (tptp.elts A A1))) (= (tptp.permut_sub1 A A1 A2 L U) (and (tptp.map_eq_sub1 A _let_2 _let_1 0 L) (tptp.permut3 A A1 A2 L U) (tptp.map_eq_sub1 A _let_2 _let_1 U (tptp.length1 A A1))))))))
(declare-fun tptp.permut_all (tptp.ty tptp.uni tptp.uni) Bool)
(assert (forall ((A tptp.ty) (A1 tptp.uni) (A2 tptp.uni)) (let ((_let_1 (tptp.length1 A A1))) (= (tptp.permut_all A A1 A2) (and (= _let_1 (tptp.length1 A A2)) (tptp.permut2 A (tptp.elts A A1) (tptp.elts A A2) 0 _let_1))))))
(assert (forall ((A tptp.ty) (A1 tptp.uni) (A2 tptp.uni) (I Int) (J Int) (L Int) (U Int)) (=> (tptp.exchange3 A A1 A2 I J) (=> (and (<= L I) (< I U)) (=> (and (<= L J) (< J U)) (=> (<= 0 L) (=> (<= U (tptp.length1 A A1)) (tptp.permut_sub1 A A1 A2 L U))))))))
(assert (forall ((A tptp.ty) (A1 tptp.uni) (A2 tptp.uni) (L1 Int) (U1 Int) (L2 Int) (U2 Int)) (=> (tptp.permut_sub1 A A1 A2 L1 U1) (=> (and (<= 0 L2) (<= L2 L1)) (=> (and (<= U1 U2) (<= U2 (tptp.length1 A A1))) (tptp.permut_sub1 A A1 A2 L2 U2))))))
(assert (forall ((A tptp.ty) (A1 tptp.uni) (A2 tptp.uni) (I Int) (J Int)) (=> (tptp.exchange3 A A1 A2 I J) (tptp.permut_all A A1 A2))))
(declare-fun tptp.abs (Int) Int)
(assert (forall ((X Int)) (let ((_let_1 (tptp.abs X))) (let ((_let_2 (<= 0 X))) (and (=> _let_2 (= _let_1 X)) (=> (not _let_2) (= _let_1 (- X))))))))
(assert (forall ((X Int) (Y Int)) (= (<= (tptp.abs X) Y) (and (<= (- Y) X) (<= X Y)))))
(assert (forall ((X Int)) (<= 0 (tptp.abs X))))
(declare-fun tptp.div (Int Int) Int)
(declare-fun tptp.mod (Int Int) Int)
(assert (forall ((X Int) (Y Int)) (=> (not (= Y 0)) (= X (+ (* Y (tptp.div X Y)) (tptp.mod X Y))))))
(assert (forall ((X Int) (Y Int)) (let ((_let_1 (tptp.div X Y))) (=> (and (<= 0 X) (< 0 Y)) (and (<= 0 _let_1) (<= _let_1 X))))))
(assert (forall ((X Int) (Y Int)) (let ((_let_1 (tptp.abs Y))) (let ((_let_2 (tptp.mod X Y))) (=> (not (= Y 0)) (and (< (- _let_1) _let_2) (< _let_2 _let_1)))))))
(assert (forall ((X Int) (Y Int)) (=> (and (<= 0 X) (< 0 Y)) (<= 0 (tptp.div X Y)))))
(assert (forall ((X Int) (Y Int)) (=> (and (<= X 0) (< 0 Y)) (<= (tptp.div X Y) 0))))
(assert (forall ((X Int) (Y Int)) (=> (and (<= 0 X) (not (= Y 0))) (<= 0 (tptp.mod X Y)))))
(assert (forall ((X Int) (Y Int)) (=> (and (<= X 0) (not (= Y 0))) (<= (tptp.mod X Y) 0))))
(assert (forall ((X Int) (Y Int)) (=> (not (= Y 0)) (<= (tptp.abs (* (tptp.div X Y) Y)) (tptp.abs X)))))
(assert (forall ((X Int)) (= (tptp.div X 1) X)))
(assert (forall ((X Int)) (= (tptp.mod X 1) 0)))
(assert (forall ((X Int) (Y Int)) (=> (and (<= 0 X) (< X Y)) (= (tptp.div X Y) 0))))
(assert (forall ((X Int) (Y Int)) (=> (and (<= 0 X) (< X Y)) (= (tptp.mod X Y) X))))
(assert (forall ((X Int) (Y Int) (Z Int)) (=> (and (< 0 X) (<= 0 Y) (<= 0 Z)) (= (tptp.div (+ (* X Y) Z) X) (+ Y (tptp.div Z X))))))
(assert (forall ((X Int) (Y Int) (Z Int)) (=> (and (< 0 X) (<= 0 Y) (<= 0 Z)) (= (tptp.mod (+ (* X Y) Z) X) (tptp.mod Z X)))))
(declare-fun tptp.min (Int Int) Int)
(declare-fun tptp.max (Int Int) Int)
(assert (forall ((X Int) (Y Int)) (let ((_let_1 (tptp.max X Y))) (and (<= X _let_1) (<= Y _let_1)))))
(assert (forall ((X Int) (Y Int)) (let ((_let_1 (tptp.max X Y))) (or (= _let_1 X) (= _let_1 Y)))))
(assert (forall ((X Int) (Y Int)) (let ((_let_1 (tptp.min X Y))) (and (<= _let_1 X) (<= _let_1 Y)))))
(assert (forall ((X Int) (Y Int)) (let ((_let_1 (tptp.min X Y))) (or (= _let_1 X) (= _let_1 Y)))))
(assert (forall ((X Int) (Y Int)) (=> (<= Y X) (= (tptp.max X Y) X))))
(assert (forall ((X Int) (Y Int)) (=> (<= X Y) (= (tptp.max X Y) Y))))
(assert (forall ((X Int) (Y Int)) (=> (<= X Y) (= (tptp.min X Y) X))))
(assert (forall ((X Int) (Y Int)) (=> (<= Y X) (= (tptp.min X Y) Y))))
(assert (forall ((X Int) (Y Int)) (=> (<= Y X) (= (tptp.max X Y) (tptp.max Y X)))))
(assert (forall ((X Int) (Y Int)) (=> (<= Y X) (= (tptp.min X Y) (tptp.min Y X)))))
(declare-sort tptp.map_int_elt2 0)
(declare-fun tptp.t2tb9 (tptp.map_int_elt2) tptp.uni)
(assert (forall ((X tptp.map_int_elt2)) (tptp.sort1 (tptp.map tptp.int tptp.elt5) (tptp.t2tb9 X))))
(declare-fun tptp.tb2t9 (tptp.uni) tptp.map_int_elt2)
(assert (forall ((I tptp.map_int_elt2)) (= (tptp.tb2t9 (tptp.t2tb9 I)) I)))
(assert (forall ((J tptp.uni)) (=> (tptp.sort1 (tptp.map tptp.int tptp.elt5) J) (= (tptp.t2tb9 (tptp.tb2t9 J)) J))))
(assert (not (forall ((A Int) (A1 tptp.map_int_elt2)) (=> (<= 0 A) (forall ((Tmp Int) (Tmp1 tptp.map_int_elt2)) (=> (and (<= 0 Tmp) (= Tmp A) (forall ((I Int)) (let ((_let_1 (tptp.t2tb I))) (=> (and (<= 0 I) (< I Tmp)) (= (tptp.tb2t7 (tptp.get tptp.elt5 tptp.int (tptp.t2tb9 Tmp1) _let_1)) (tptp.tb2t7 (tptp.get tptp.elt5 tptp.int (tptp.t2tb9 A1) _let_1))))))) (forall ((Len Int) (A2 tptp.map_int_elt2)) (=> (and (<= 1 Len) (tptp.permut_all tptp.elt5 (tptp.mk_array1 tptp.elt5 A (tptp.t2tb9 A1)) (tptp.mk_array1 tptp.elt5 A (tptp.t2tb9 A2))) (forall ((K Int)) (let ((_let_1 (* K Len))) (=> (and (<= 0 _let_1) (< _let_1 A)) (tptp.sorted_sub3 (tptp.tb2t8 (tptp.mk_array1 tptp.elt5 A (tptp.t2tb9 A2))) _let_1 (tptp.min A (+ _let_1 Len))))))) (=> (< Len A) (forall ((K Int)) (let ((_let_1 (* K Len))) (=> (and (<= 0 _let_1) (< _let_1 A)) (tptp.sorted_sub3 (tptp.tb2t8 (tptp.mk_array1 tptp.elt5 A (tptp.t2tb9 A2))) _let_1 (tptp.min A (+ _let_1 Len)))))))))))))))
(check-sat)
(exit)
